p edge 24 130
e 4 1
e 4 2
e 5 1
e 5 2
e 6 3
e 6 5
e 7 1
e 7 3
e 8 1
e 8 2
e 8 4
e 8 7
e 9 2
e 9 5
e 10 4
e 10 5
e 10 7
e 11 1
e 11 4
e 11 8
e 11 9
e 12 1
e 12 2
e 12 3
e 12 5
e 12 7
e 12 8
e 13 2
e 13 3
e 13 4
e 13 5
e 13 8
e 13 9
e 13 10
e 13 12
e 14 2
e 14 3
e 14 4
e 14 7
e 14 8
e 14 12
e 15 3
e 15 4
e 15 8
e 15 11
e 16 1
e 16 5
e 16 6
e 16 7
e 16 10
e 16 11
e 17 1
e 17 2
e 17 3
e 17 7
e 17 9
e 17 13
e 17 15
e 17 16
e 18 1
e 18 3
e 18 4
e 18 6
e 18 7
e 18 9
e 18 13
e 18 14
e 18 15
e 18 16
e 18 17
e 19 1
e 19 3
e 19 4
e 19 5
e 19 6
e 19 11
e 19 15
e 19 16
e 20 2
e 20 6
e 20 7
e 20 8
e 20 10
e 20 12
e 20 17
e 21 2
e 21 6
e 21 7
e 21 8
e 21 9
e 21 12
e 21 17
e 21 20
e 22 1
e 22 2
e 22 6
e 22 7
e 22 9
e 22 10
e 22 12
e 22 14
e 22 19
e 22 20
e 22 21
e 23 1
e 23 3
e 23 4
e 23 6
e 23 7
e 23 10
e 23 12
e 23 13
e 23 16
e 23 17
e 23 20
e 23 21
e 23 22
e 24 5
e 24 7
e 24 10
e 24 11
e 24 12
e 24 13
e 24 15
e 24 16
e 24 17
e 24 18
e 24 21
e 24 22
e 24 23
